nK = 1060;
nT = 6;
nI = 14;
L = 29;
TT = 221;
np = 1;
nc = 3;
b = [35, 57, 65, 29, 70, 26, 28, 34, 63, 65, 32, 33, 60, 40];
d = [55, 150, 107, 44, 124, 72, 93, 117, 125, 148, 149, 138, 94, 116];
m = [2.1, 1.9, 2, 1, 1.2, 1.6, 2.5, 1.4, 1.1, 1, 1.1, 1.5, 1.2, 2.1];
pt = [0.2, 0.23, 0.23, 0.2, 0.22, 0.31];
st = [9, 11.04, 9.66, 10.2, 12.76, 13.02];
arc = {<1, 0, 1, 1, 0, 0, 0, [1, 1, 1, 1, 1, 1]>, <2, 1, 2, 1, 0, 0, 0, [1, 1, 1, 1, 1, 1]>, <3, 2, 3, 1, 0, 0, 0, [1, 1, 1, 1, 1, 1]>, <4, 3, 4, 1, 0, 0, 0, [1, 1, 1, 1, 1, 1]>, <5, 4, 5, 1, 0, 0, 0, [1, 1, 1, 1, 1, 1]>, <6, 5, 6, 1, 0, 0, 0, [1, 1, 1, 1, 1, 1]>, <7, 6, 7, 1, 0, 0, 0, [1, 1, 1, 1, 1, 1]>, <8, 7, 8, 1, 0, 0, 0, [1, 1, 1, 1, 1, 1]>, <9, 8, 9, 1, 0, 0, 0, [1, 1, 1, 1, 1, 1]>, <10, 9, 10, 1, 0, 0, 0, [1, 1, 1, 1, 1, 1]>, <11, 10, 11, 1, 0, 0, 0, [1, 1, 1, 1, 1, 1]>, <12, 11, 12, 1, 0, 0, 0, [1, 1, 1, 1, 1, 1]>, <13, 12, 13, 1, 0, 0, 0, [1, 1, 1, 1, 1, 1]>, <14, 13, 14, 1, 0, 0, 0, [1, 1, 1, 1, 1, 1]>, <15, 14, 15, 1, 0, 0, 0, [1, 1, 1, 1, 1, 1]>, <16, 15, 16, 1, 0, 0, 0, [1, 1, 1, 1, 1, 1]>, <17, 16, 17, 1, 0, 0, 0, [1, 1, 1, 1, 1, 1]>, <18, 17, 18, 1, 0, 0, 0, [1, 1, 1, 1, 1, 1]>, <19, 18, 19, 1, 0, 0, 0, [1, 1, 1, 1, 1, 1]>, <20, 19, 20, 1, 0, 0, 0, [1, 1, 1, 1, 1, 1]>, <21, 20, 21, 1, 0, 0, 0, [1, 1, 1, 1, 1, 1]>, <22, 21, 22, 1, 0, 0, 0, [1, 1, 1, 1, 1, 1]>, <23, 22, 23, 1, 0, 0, 0, [1, 1, 1, 1, 1, 1]>, <24, 23, 24, 1, 0, 0, 0, [1, 1, 1, 1, 1, 1]>, <25, 24, 25, 1, 0, 0, 0, [1, 1, 1, 1, 1, 1]>, <26, 25, 26, 1, 0, 0, 0, [1, 1, 1, 1, 1, 1]>, <27, 26, 27, 1, 0, 0, 0, [1, 1, 1, 1, 1, 1]>, <28, 27, 28, 1, 0, 0, 0, [1, 1, 1, 1, 1, 1]>, <29, 28, 29, 1, 0, 0, 0, [1, 1, 1, 1, 1, 1]>, <30, 4, 12, 8, 1, 1, 0, [0, 0, 1, 1, 0, 0]>, <31, 5, 13, 8, 1, 1, 0, [0, 0, 1, 1, 0, 0]>, <32, 11, 19, 8, 1, 1, 0, [0, 0, 1, 1, 0, 0]>, <33, 12, 20, 8, 1, 1, 0, [0, 0, 1, 1, 0, 0]>, <34, 16, 24, 8, 1, 1, 0, [0, 0, 1, 1, 0, 0]>, <35, 17, 25, 8, 1, 1, 0, [0, 0, 1, 1, 0, 0]>, <36, 18, 26, 8, 1, 1, 0, [0, 0, 1, 1, 0, 0]>, <37, 19, 27, 8, 1, 1, 0, [0, 0, 1, 1, 0, 0]>, <38, 20, 28, 8, 1, 1, 0, [0, 0, 1, 1, 0, 0]>, <39, 4, 12, 8, 2, 1, 0, [0, 1, 1, 0, 0, 0]>, <40, 5, 13, 8, 2, 1, 0, [0, 1, 1, 0, 0, 0]>, <41, 11, 19, 8, 2, 1, 0, [0, 1, 1, 0, 0, 0]>, <42, 12, 20, 8, 2, 1, 0, [0, 1, 1, 0, 0, 0]>, <43, 16, 24, 8, 2, 1, 0, [0, 1, 1, 0, 0, 0]>, <44, 17, 25, 8, 2, 1, 0, [0, 1, 1, 0, 0, 0]>, <45, 18, 26, 8, 2, 1, 0, [0, 1, 1, 0, 0, 0]>, <46, 19, 27, 8, 2, 1, 0, [0, 1, 1, 0, 0, 0]>, <47, 20, 28, 8, 2, 1, 0, [0, 1, 1, 0, 0, 0]>, <48, 1, 12, 11, 3, 0, 0, [1, 0, 0, 0, 0, 1]>, <49, 2, 13, 11, 3, 0, 0, [1, 0, 0, 0, 0, 1]>, <50, 3, 14, 11, 3, 0, 0, [1, 0, 0, 0, 0, 1]>, <51, 4, 15, 11, 3, 0, 0, [1, 0, 0, 0, 0, 1]>, <52, 5, 16, 11, 3, 0, 0, [1, 0, 0, 0, 0, 1]>, <53, 9, 20, 11, 3, 0, 0, [1, 0, 0, 0, 0, 1]>, <54, 10, 21, 11, 3, 0, 0, [1, 0, 0, 0, 0, 1]>, <55, 11, 22, 11, 3, 0, 0, [1, 0, 0, 0, 0, 1]>, <56, 12, 23, 11, 3, 0, 0, [1, 0, 0, 0, 0, 1]>, <57, 13, 24, 11, 3, 0, 0, [1, 0, 0, 0, 0, 1]>, <58, 14, 25, 11, 3, 0, 0, [1, 0, 0, 0, 0, 1]>, <59, 15, 26, 11, 3, 0, 0, [1, 0, 0, 0, 0, 1]>, <60, 16, 27, 11, 3, 0, 0, [1, 0, 0, 0, 0, 1]>, <61, 17, 28, 11, 3, 0, 0, [1, 0, 0, 0, 0, 1]>, <62, 18, 29, 11, 3, 0, 0, [1, 0, 0, 0, 0, 1]>, <63, 1, 12, 11, 4, 0, 1, [1, 0, 0, 0, 0, 1]>, <64, 2, 13, 11, 4, 0, 1, [1, 0, 0, 0, 0, 1]>, <65, 3, 14, 11, 4, 0, 1, [1, 0, 0, 0, 0, 1]>, <66, 4, 15, 11, 4, 0, 1, [1, 0, 0, 0, 0, 1]>, <67, 5, 16, 11, 4, 0, 1, [1, 0, 0, 0, 0, 1]>, <68, 9, 20, 11, 4, 0, 1, [1, 0, 0, 0, 0, 1]>, <69, 10, 21, 11, 4, 0, 1, [1, 0, 0, 0, 0, 1]>, <70, 11, 22, 11, 4, 0, 1, [1, 0, 0, 0, 0, 1]>, <71, 12, 23, 11, 4, 0, 1, [1, 0, 0, 0, 0, 1]>, <72, 13, 24, 11, 4, 0, 1, [1, 0, 0, 0, 0, 1]>, <73, 14, 25, 11, 4, 0, 1, [1, 0, 0, 0, 0, 1]>, <74, 15, 26, 11, 4, 0, 1, [1, 0, 0, 0, 0, 1]>, <75, 16, 27, 11, 4, 0, 1, [1, 0, 0, 0, 0, 1]>, <76, 17, 28, 11, 4, 0, 1, [1, 0, 0, 0, 0, 1]>, <77, 18, 29, 11, 4, 0, 1, [1, 0, 0, 0, 0, 1]>, <78, 4, 11, 7, 5, 0, 0, [0, 0, 0, 1, 1, 0]>, <79, 5, 12, 7, 5, 0, 0, [0, 0, 0, 1, 1, 0]>, <80, 11, 18, 7, 5, 0, 0, [0, 0, 0, 1, 1, 0]>, <81, 12, 19, 7, 5, 0, 0, [0, 0, 0, 1, 1, 0]>, <82, 17, 24, 7, 5, 0, 0, [0, 0, 0, 1, 1, 0]>, <83, 18, 25, 7, 5, 0, 0, [0, 0, 0, 1, 1, 0]>, <84, 19, 26, 7, 5, 0, 0, [0, 0, 0, 1, 1, 0]>, <85, 20, 27, 7, 5, 0, 0, [0, 0, 0, 1, 1, 0]>, <86, 4, 12, 8, 6, 0, 1, [1, 0, 0, 0, 0, 1]>, <87, 5, 13, 8, 6, 0, 1, [1, 0, 0, 0, 0, 1]>, <88, 11, 19, 8, 6, 0, 1, [1, 0, 0, 0, 0, 1]>, <89, 12, 20, 8, 6, 0, 1, [1, 0, 0, 0, 0, 1]>, <90, 16, 24, 8, 6, 0, 1, [1, 0, 0, 0, 0, 1]>, <91, 17, 25, 8, 6, 0, 1, [1, 0, 0, 0, 0, 1]>, <92, 18, 26, 8, 6, 0, 1, [1, 0, 0, 0, 0, 1]>, <93, 19, 27, 8, 6, 0, 1, [1, 0, 0, 0, 0, 1]>, <94, 20, 28, 8, 6, 0, 1, [1, 0, 0, 0, 0, 1]>, <95, 4, 12, 8, 7, 0, 0, [0, 1, 1, 0, 0, 0]>, <96, 5, 13, 8, 7, 0, 0, [0, 1, 1, 0, 0, 0]>, <97, 11, 19, 8, 7, 0, 0, [0, 1, 1, 0, 0, 0]>, <98, 12, 20, 8, 7, 0, 0, [0, 1, 1, 0, 0, 0]>, <99, 16, 24, 8, 7, 0, 0, [0, 1, 1, 0, 0, 0]>, <100, 17, 25, 8, 7, 0, 0, [0, 1, 1, 0, 0, 0]>, <101, 18, 26, 8, 7, 0, 0, [0, 1, 1, 0, 0, 0]>, <102, 19, 27, 8, 7, 0, 0, [0, 1, 1, 0, 0, 0]>, <103, 20, 28, 8, 7, 0, 0, [0, 1, 1, 0, 0, 0]>, <104, 4, 11, 7, 8, 0, 1, [0, 0, 1, 1, 0, 0]>, <105, 5, 12, 7, 8, 0, 1, [0, 0, 1, 1, 0, 0]>, <106, 11, 18, 7, 8, 0, 1, [0, 0, 1, 1, 0, 0]>, <107, 12, 19, 7, 8, 0, 1, [0, 0, 1, 1, 0, 0]>, <108, 17, 24, 7, 8, 0, 1, [0, 0, 1, 1, 0, 0]>, <109, 18, 25, 7, 8, 0, 1, [0, 0, 1, 1, 0, 0]>, <110, 19, 26, 7, 8, 0, 1, [0, 0, 1, 1, 0, 0]>, <111, 20, 27, 7, 8, 0, 1, [0, 0, 1, 1, 0, 0]>, <112, 4, 12, 8, 9, 0, 1, [0, 0, 0, 1, 1, 0]>, <113, 5, 13, 8, 9, 0, 1, [0, 0, 0, 1, 1, 0]>, <114, 11, 19, 8, 9, 0, 1, [0, 0, 0, 1, 1, 0]>, <115, 12, 20, 8, 9, 0, 1, [0, 0, 0, 1, 1, 0]>, <116, 16, 24, 8, 9, 0, 1, [0, 0, 0, 1, 1, 0]>, <117, 17, 25, 8, 9, 0, 1, [0, 0, 0, 1, 1, 0]>, <118, 18, 26, 8, 9, 0, 1, [0, 0, 0, 1, 1, 0]>, <119, 19, 27, 8, 9, 0, 1, [0, 0, 0, 1, 1, 0]>, <120, 20, 28, 8, 9, 0, 1, [0, 0, 0, 1, 1, 0]>, <121, 2, 12, 10, 10, 0, 0, [1, 0, 0, 0, 0, 1]>, <122, 3, 13, 10, 10, 0, 0, [1, 0, 0, 0, 0, 1]>, <123, 4, 14, 10, 10, 0, 0, [1, 0, 0, 0, 0, 1]>, <124, 5, 15, 10, 10, 0, 0, [1, 0, 0, 0, 0, 1]>, <125, 10, 20, 10, 10, 0, 0, [1, 0, 0, 0, 0, 1]>, <126, 11, 21, 10, 10, 0, 0, [1, 0, 0, 0, 0, 1]>, <127, 12, 22, 10, 10, 0, 0, [1, 0, 0, 0, 0, 1]>, <128, 14, 24, 10, 10, 0, 0, [1, 0, 0, 0, 0, 1]>, <129, 15, 25, 10, 10, 0, 0, [1, 0, 0, 0, 0, 1]>, <130, 16, 26, 10, 10, 0, 0, [1, 0, 0, 0, 0, 1]>, <131, 17, 27, 10, 10, 0, 0, [1, 0, 0, 0, 0, 1]>, <132, 18, 28, 10, 10, 0, 0, [1, 0, 0, 0, 0, 1]>, <133, 19, 29, 10, 10, 0, 0, [1, 0, 0, 0, 0, 1]>, <134, 4, 12, 8, 11, 0, 0, [0, 0, 0, 1, 1, 0]>, <135, 5, 13, 8, 11, 0, 0, [0, 0, 0, 1, 1, 0]>, <136, 11, 19, 8, 11, 0, 0, [0, 0, 0, 1, 1, 0]>, <137, 12, 20, 8, 11, 0, 0, [0, 0, 0, 1, 1, 0]>, <138, 16, 24, 8, 11, 0, 0, [0, 0, 0, 1, 1, 0]>, <139, 17, 25, 8, 11, 0, 0, [0, 0, 0, 1, 1, 0]>, <140, 18, 26, 8, 11, 0, 0, [0, 0, 0, 1, 1, 0]>, <141, 19, 27, 8, 11, 0, 0, [0, 0, 0, 1, 1, 0]>, <142, 20, 28, 8, 11, 0, 0, [0, 0, 0, 1, 1, 0]>, <143, 4, 11, 7, 12, 0, 1, [1, 1, 0, 0, 0, 0]>, <144, 5, 12, 7, 12, 0, 1, [1, 1, 0, 0, 0, 0]>, <145, 11, 18, 7, 12, 0, 1, [1, 1, 0, 0, 0, 0]>, <146, 12, 19, 7, 12, 0, 1, [1, 1, 0, 0, 0, 0]>, <147, 17, 24, 7, 12, 0, 1, [1, 1, 0, 0, 0, 0]>, <148, 18, 25, 7, 12, 0, 1, [1, 1, 0, 0, 0, 0]>, <149, 19, 26, 7, 12, 0, 1, [1, 1, 0, 0, 0, 0]>, <150, 20, 27, 7, 12, 0, 1, [1, 1, 0, 0, 0, 0]>, <151, 1, 12, 11, 13, 1, 0, [0, 1, 1, 0, 0, 0]>, <152, 2, 13, 11, 13, 1, 0, [0, 1, 1, 0, 0, 0]>, <153, 3, 14, 11, 13, 1, 0, [0, 1, 1, 0, 0, 0]>, <154, 4, 15, 11, 13, 1, 0, [0, 1, 1, 0, 0, 0]>, <155, 5, 16, 11, 13, 1, 0, [0, 1, 1, 0, 0, 0]>, <156, 9, 20, 11, 13, 1, 0, [0, 1, 1, 0, 0, 0]>, <157, 10, 21, 11, 13, 1, 0, [0, 1, 1, 0, 0, 0]>, <158, 11, 22, 11, 13, 1, 0, [0, 1, 1, 0, 0, 0]>, <159, 12, 23, 11, 13, 1, 0, [0, 1, 1, 0, 0, 0]>, <160, 13, 24, 11, 13, 1, 0, [0, 1, 1, 0, 0, 0]>, <161, 14, 25, 11, 13, 1, 0, [0, 1, 1, 0, 0, 0]>, <162, 15, 26, 11, 13, 1, 0, [0, 1, 1, 0, 0, 0]>, <163, 16, 27, 11, 13, 1, 0, [0, 1, 1, 0, 0, 0]>, <164, 17, 28, 11, 13, 1, 0, [0, 1, 1, 0, 0, 0]>, <165, 18, 29, 11, 13, 1, 0, [0, 1, 1, 0, 0, 0]>, <166, 3, 12, 9, 14, 0, 1, [0, 1, 1, 0, 0, 0]>, <167, 4, 13, 9, 14, 0, 1, [0, 1, 1, 0, 0, 0]>, <168, 5, 14, 9, 14, 0, 1, [0, 1, 1, 0, 0, 0]>, <169, 11, 20, 9, 14, 0, 1, [0, 1, 1, 0, 0, 0]>, <170, 12, 21, 9, 14, 0, 1, [0, 1, 1, 0, 0, 0]>, <171, 15, 24, 9, 14, 0, 1, [0, 1, 1, 0, 0, 0]>, <172, 16, 25, 9, 14, 0, 1, [0, 1, 1, 0, 0, 0]>, <173, 17, 26, 9, 14, 0, 1, [0, 1, 1, 0, 0, 0]>, <174, 18, 27, 9, 14, 0, 1, [0, 1, 1, 0, 0, 0]>, <175, 19, 28, 9, 14, 0, 1, [0, 1, 1, 0, 0, 0]>, <176, 20, 29, 9, 14, 0, 1, [0, 1, 1, 0, 0, 0]>};
